benchmark/results/graph__10-1000-0.10-04_3/graph__10-1000-0.10-04_3_QuintonOs_Benders_primal_sub.lp
\ This file has been generated by DOcplex
\ ENCODING=ISO-8859-1
\Problem name: Quinton Bounded Benders_primal_sub

Maximize
 obj: tau
Subject To
 c1: tau <= 0.002169197397
 c2: y_a0_proc_0 + y_a0_proc_1 + y_a0_proc_2 + y_a0_proc_3 - tau = 0
 c3: y_a0_proc_0 <= 0
 c4: y_a0_proc_1 <= 0
 c5: y_a0_proc_2 <= 0
 c6: y_a0_proc_3 <= 1
 c7: tau <= 0.001517450683
 c8: y_a1_proc_1 + y_a1_proc_2 + y_a1_proc_3 - tau = 0
 c9: y_a1_proc_1 <= 0
 c10: y_a1_proc_2 <= 1
 c11: y_a1_proc_3 <= 0
 c12: tau <= 0.001464128843
 c13: y_a2_proc_0 + y_a2_proc_1 + y_a2_proc_2 + y_a2_proc_3 - tau = 0
 c14: y_a2_proc_0 <= 1
 c15: y_a2_proc_1 <= 0
 c16: y_a2_proc_2 <= 0
 c17: y_a2_proc_3 <= 0
 c18: tau <= 0.001355013550
 c19: y_a3_proc_1 + y_a3_proc_3 - tau = 0
 c20: y_a3_proc_1 <= 0
 c21: y_a3_proc_3 <= 1
 c22: tau <= 0.001236093943
 c23: y_a4_proc_0 + y_a4_proc_1 + y_a4_proc_2 + y_a4_proc_3 - tau = 0
 c24: y_a4_proc_0 <= 0
 c25: y_a4_proc_1 <= 0
 c26: y_a4_proc_2 <= 1
 c27: y_a4_proc_3 <= 0
 c28: tau <= 0.001156069364
 c29: y_a5_proc_0 + y_a5_proc_1 + y_a5_proc_2 - tau = 0
 c30: y_a5_proc_0 <= 0
 c31: y_a5_proc_1 <= 0
 c32: y_a5_proc_2 <= 1
 c33: tau <= 0.001408450704
 c34: y_a6_proc_0 + y_a6_proc_1 + y_a6_proc_2 + y_a6_proc_3 - tau = 0
 c35: y_a6_proc_0 <= 1
 c36: y_a6_proc_1 <= 0
 c37: y_a6_proc_2 <= 0
 c38: y_a6_proc_3 <= 0
 c39: tau <= 0.001683501684
 c40: y_a7_proc_1 + y_a7_proc_2 + y_a7_proc_3 - tau = 0
 c41: y_a7_proc_1 <= 1
 c42: y_a7_proc_2 <= 0
 c43: y_a7_proc_3 <= 0
 c44: tau <= 0.001328021248
 c45: y_a8_proc_0 + y_a8_proc_1 + y_a8_proc_2 + y_a8_proc_3 - tau = 0
 c46: y_a8_proc_0 <= 0
 c47: y_a8_proc_1 <= 1
 c48: y_a8_proc_2 <= 0
 c49: y_a8_proc_3 <= 0
 c50: tau <= 0.001321003963
 c51: y_a9_proc_0 + y_a9_proc_1 + y_a9_proc_2 + y_a9_proc_3 - tau = 0
 c52: y_a9_proc_0 <= 1
 c53: y_a9_proc_1 <= 0
 c54: y_a9_proc_2 <= 0
 c55: y_a9_proc_3 <= 0
 c56: u_a1 - u_a0 - 908 y_a0_proc_0 - 1094 y_a0_proc_1 - 1054 y_a0_proc_2
      - 461 y_a0_proc_3 >= -1
 c57: u_a0 - u_a2 - 683 y_a2_proc_0 - 1100 y_a2_proc_1 - 861 y_a2_proc_2
      - 1289 y_a2_proc_3 >= 0
 c58: u_a3 - u_a2 - 683 y_a2_proc_0 - 1100 y_a2_proc_1 - 861 y_a2_proc_2
      - 1289 y_a2_proc_3 >= 0
 c59: u_a3 - u_a4 - 948 y_a4_proc_0 - 1042 y_a4_proc_1 - 809 y_a4_proc_2
      - 1227 y_a4_proc_3 >= 0
 c60: u_a3 - u_a5 - 1152 y_a5_proc_0 - 873 y_a5_proc_1 - 865 y_a5_proc_2 >= 0
 c61: u_a2 - u_a6 - 710 y_a6_proc_0 - 1026 y_a6_proc_1 - 952 y_a6_proc_2
      - 688 y_a6_proc_3 >= 0
 c62: u_a7 - u_a3 - 793 y_a3_proc_1 - 738 y_a3_proc_3 >= -1
 c63: u_a8 - u_a1 - 1235 y_a1_proc_1 - 659 y_a1_proc_2 - 678 y_a1_proc_3 >= 0
 c64: u_a6 - u_a9 - 757 y_a9_proc_0 - 1046 y_a9_proc_1 - 807 y_a9_proc_2
      - 1032 y_a9_proc_3 >= 0
 c65: u_a2 - u_a8 - 852 y_a8_proc_0 - 753 y_a8_proc_1 - 875 y_a8_proc_2
      - 1108 y_a8_proc_3 >= -1
 c66: u_a5 - u_a4 - 948 y_a4_proc_0 - 1042 y_a4_proc_1 - 809 y_a4_proc_2
      - 1227 y_a4_proc_3 >= 0
 c67: u_a1 - u_a3 - 793 y_a3_proc_1 - 738 y_a3_proc_3 >= -1
 c68: u_a9 - u_a7 - 594 y_a7_proc_1 - 738 y_a7_proc_2 - 790 y_a7_proc_3 >= 0
 c69: u_a4 - u_a2 - 683 y_a2_proc_0 - 1100 y_a2_proc_1 - 861 y_a2_proc_2
      - 1289 y_a2_proc_3 >= 0
 c70: u_a6 - u_a0 - 908 y_a0_proc_0 - 1094 y_a0_proc_1 - 1054 y_a0_proc_2
      - 461 y_a0_proc_3 >= -1
 c71: - 757 y_a9_proc_0 - 1046 y_a9_proc_1 - 807 y_a9_proc_2 - 1032 y_a9_proc_3
       >= -1
 c72: u_a2 - u_a7 - 594 y_a7_proc_1 - 738 y_a7_proc_2 - 790 y_a7_proc_3 >= 0
 c73: u_a7 - u_a1 - 1235 y_a1_proc_1 - 659 y_a1_proc_2 - 678 y_a1_proc_3 >= -1
 c74: u_a1 - u_a0 - 1054 y_a0_proc_2 >= -1276
 c75: u_a1 - u_a0 - 461 y_a0_proc_3 >= -1276
 c76: u_a1 - u_a0 - 1094 y_a0_proc_1 >= -2565
 c77: u_a0 - u_a1 - 659 y_a1_proc_2 >= -1303
 c78: u_a0 - u_a1 - 678 y_a1_proc_3 >= -1303
 c79: u_a0 - u_a1 - 1235 y_a1_proc_1 >= -2592
 c80: u_a2 - u_a0 - 1054 y_a0_proc_2 >= -2592
 c81: u_a2 - u_a0 - 461 y_a0_proc_3 >= -1303
 c82: u_a2 - u_a0 - 908 y_a0_proc_0 >= -1303
 c83: u_a2 - u_a0 - 1094 y_a0_proc_1 >= -2592
 c84: u_a0 - u_a2 - 861 y_a2_proc_2 >= -2565
 c85: u_a0 - u_a2 - 1289 y_a2_proc_3 >= -1276
 c86: u_a0 - u_a2 - 683 y_a2_proc_0 >= -1276
 c87: u_a0 - u_a2 - 1100 y_a2_proc_1 >= -2565
 c88: u_a3 - u_a0 - 461 y_a0_proc_3 >= -1
 c89: u_a3 - u_a0 - 1094 y_a0_proc_1 >= -2579
 c90: u_a0 - u_a3 - 738 y_a3_proc_3 >= 0
 c91: u_a0 - u_a3 - 793 y_a3_proc_1 >= -2578
 c92: u_a4 - u_a0 - 1054 y_a0_proc_2 >= -1303
 c93: u_a4 - u_a0 - 461 y_a0_proc_3 >= -1303
 c94: u_a4 - u_a0 - 908 y_a0_proc_0 >= -2592
 c95: u_a4 - u_a0 - 1094 y_a0_proc_1 >= -2592
 c96: u_a0 - u_a4 - 809 y_a4_proc_2 >= -1276
 c97: u_a0 - u_a4 - 1227 y_a4_proc_3 >= -1276
 c98: u_a0 - u_a4 - 948 y_a4_proc_0 >= -2565
 c99: u_a0 - u_a4 - 1042 y_a4_proc_1 >= -2565
 c100: u_a5 - u_a0 - 1054 y_a0_proc_2 >= -1303
 c101: u_a5 - u_a0 - 908 y_a0_proc_0 >= -2592
 c102: u_a5 - u_a0 - 1094 y_a0_proc_1 >= -2592
 c103: u_a0 - u_a5 - 865 y_a5_proc_2 >= -1276
 c104: u_a0 - u_a5 - 1152 y_a5_proc_0 >= -2565
 c105: u_a0 - u_a5 - 873 y_a5_proc_1 >= -2565
 c106: u_a6 - u_a0 - 1054 y_a0_proc_2 >= -2592
 c107: u_a6 - u_a0 - 461 y_a0_proc_3 >= -1303
 c108: u_a6 - u_a0 - 908 y_a0_proc_0 >= -1303
 c109: u_a6 - u_a0 - 1094 y_a0_proc_1 >= -2592
 c110: u_a0 - u_a6 - 952 y_a6_proc_2 >= -2565
 c111: u_a0 - u_a6 - 688 y_a6_proc_3 >= -1276
 c112: u_a0 - u_a6 - 710 y_a6_proc_0 >= -1276
 c113: u_a0 - u_a6 - 1026 y_a6_proc_1 >= -2565
 c114: u_a7 - u_a0 - 1054 y_a0_proc_2 >= -2565
 c115: u_a7 - u_a0 - 461 y_a0_proc_3 >= -1276
 c116: u_a7 - u_a0 - 1094 y_a0_proc_1 >= -1276
 c117: u_a0 - u_a7 - 738 y_a7_proc_2 >= -2592
 c118: u_a0 - u_a7 - 790 y_a7_proc_3 >= -1303
 c119: u_a0 - u_a7 - 594 y_a7_proc_1 >= -1303
 c120: u_a8 - u_a0 - 1054 y_a0_proc_2 >= -2592
 c121: u_a8 - u_a0 - 461 y_a0_proc_3 >= -1303
 c122: u_a8 - u_a0 - 908 y_a0_proc_0 >= -2592
 c123: u_a8 - u_a0 - 1094 y_a0_proc_1 >= -1303
 c124: u_a0 - u_a8 - 875 y_a8_proc_2 >= -2565
 c125: u_a0 - u_a8 - 1108 y_a8_proc_3 >= -1276
 c126: u_a0 - u_a8 - 852 y_a8_proc_0 >= -2565
 c127: u_a0 - u_a8 - 753 y_a8_proc_1 >= -1276
 c128: u_a9 - u_a0 - 1054 y_a0_proc_2 >= -2565
 c129: u_a9 - u_a0 - 461 y_a0_proc_3 >= -1276
 c130: u_a9 - u_a0 - 908 y_a0_proc_0 >= -1276
 c131: u_a9 - u_a0 - 1094 y_a0_proc_1 >= -2565
 c132: u_a0 - u_a9 - 807 y_a9_proc_2 >= -2592
 c133: u_a0 - u_a9 - 1032 y_a9_proc_3 >= -1303
 c134: u_a0 - u_a9 - 757 y_a9_proc_0 >= -1303
 c135: u_a0 - u_a9 - 1046 y_a9_proc_1 >= -2592
 c136: u_a2 - u_a1 - 659 y_a1_proc_2 >= -1303
 c137: u_a2 - u_a1 - 678 y_a1_proc_3 >= -2592
 c138: u_a2 - u_a1 - 1235 y_a1_proc_1 >= -2592
 c139: u_a1 - u_a2 - 861 y_a2_proc_2 >= -1276
 c140: u_a1 - u_a2 - 1289 y_a2_proc_3 >= -2565
 c141: u_a1 - u_a2 - 1100 y_a2_proc_1 >= -2565
 c142: u_a3 - u_a1 - 678 y_a1_proc_3 >= -1303
 c143: u_a3 - u_a1 - 1235 y_a1_proc_1 >= -2592
 c144: u_a1 - u_a3 - 738 y_a3_proc_3 >= -1276
 c145: u_a1 - u_a3 - 793 y_a3_proc_1 >= -2565
 c146: u_a4 - u_a1 - 659 y_a1_proc_2 >= 0
 c147: u_a4 - u_a1 - 678 y_a1_proc_3 >= -2578
 c148: u_a4 - u_a1 - 1235 y_a1_proc_1 >= -2578
 c149: u_a1 - u_a4 - 809 y_a4_proc_2 >= -1
 c150: u_a1 - u_a4 - 1227 y_a4_proc_3 >= -2579
 c151: u_a1 - u_a4 - 1042 y_a4_proc_1 >= -2579
 c152: u_a5 - u_a1 - 659 y_a1_proc_2 >= 0
 c153: u_a5 - u_a1 - 1235 y_a1_proc_1 >= -2578
 c154: u_a1 - u_a5 - 865 y_a5_proc_2 >= -1
 c155: u_a1 - u_a5 - 873 y_a5_proc_1 >= -2579
 c156: u_a6 - u_a1 - 659 y_a1_proc_2 >= -1303
 c157: u_a6 - u_a1 - 678 y_a1_proc_3 >= -2592
 c158: u_a6 - u_a1 - 1235 y_a1_proc_1 >= -2592
 c159: u_a1 - u_a6 - 952 y_a6_proc_2 >= -1276
 c160: u_a1 - u_a6 - 688 y_a6_proc_3 >= -2565
 c161: u_a1 - u_a6 - 1026 y_a6_proc_1 >= -2565
 c162: u_a7 - u_a1 - 659 y_a1_proc_2 >= -1303
 c163: u_a7 - u_a1 - 678 y_a1_proc_3 >= -2592
 c164: u_a7 - u_a1 - 1235 y_a1_proc_1 >= -1303
 c165: u_a1 - u_a7 - 738 y_a7_proc_2 >= -1276
 c166: u_a1 - u_a7 - 790 y_a7_proc_3 >= -2565
 c167: u_a1 - u_a7 - 594 y_a7_proc_1 >= -1276
 c168: u_a8 - u_a1 - 659 y_a1_proc_2 >= -1303
 c169: u_a8 - u_a1 - 678 y_a1_proc_3 >= -2592
 c170: u_a8 - u_a1 - 1235 y_a1_proc_1 >= -1303
 c171: u_a1 - u_a8 - 875 y_a8_proc_2 >= -1276
 c172: u_a1 - u_a8 - 1108 y_a8_proc_3 >= -2565
 c173: u_a1 - u_a8 - 753 y_a8_proc_1 >= -1276
 c174: u_a9 - u_a1 - 659 y_a1_proc_2 >= -1303
 c175: u_a9 - u_a1 - 678 y_a1_proc_3 >= -2592
 c176: u_a9 - u_a1 - 1235 y_a1_proc_1 >= -2592
 c177: u_a1 - u_a9 - 807 y_a9_proc_2 >= -1276
 c178: u_a1 - u_a9 - 1032 y_a9_proc_3 >= -2565
 c179: u_a1 - u_a9 - 1046 y_a9_proc_1 >= -2565
 c180: u_a3 - u_a2 - 1289 y_a2_proc_3 >= -1303
 c181: u_a3 - u_a2 - 1100 y_a2_proc_1 >= -2592
 c182: u_a2 - u_a3 - 738 y_a3_proc_3 >= -1276
 c183: u_a2 - u_a3 - 793 y_a3_proc_1 >= -2565
 c184: u_a4 - u_a2 - 861 y_a2_proc_2 >= -1303
 c185: u_a4 - u_a2 - 1289 y_a2_proc_3 >= -2592
 c186: u_a4 - u_a2 - 683 y_a2_proc_0 >= -1303
 c187: u_a4 - u_a2 - 1100 y_a2_proc_1 >= -2592
 c188: u_a2 - u_a4 - 809 y_a4_proc_2 >= -1276
 c189: u_a2 - u_a4 - 1227 y_a4_proc_3 >= -2565
 c190: u_a2 - u_a4 - 948 y_a4_proc_0 >= -1276
 c191: u_a2 - u_a4 - 1042 y_a4_proc_1 >= -2565
 c192: u_a5 - u_a2 - 861 y_a2_proc_2 >= -1303
 c193: u_a5 - u_a2 - 683 y_a2_proc_0 >= -1303
 c194: u_a5 - u_a2 - 1100 y_a2_proc_1 >= -2592
 c195: u_a2 - u_a5 - 865 y_a5_proc_2 >= -1276
 c196: u_a2 - u_a5 - 1152 y_a5_proc_0 >= -1276
 c197: u_a2 - u_a5 - 873 y_a5_proc_1 >= -2565
 c198: u_a6 - u_a2 - 861 y_a2_proc_2 >= -2579
 c199: u_a6 - u_a2 - 1289 y_a2_proc_3 >= -2579
 c200: u_a6 - u_a2 - 683 y_a2_proc_0 >= -1
 c201: u_a6 - u_a2 - 1100 y_a2_proc_1 >= -2579
 c202: u_a2 - u_a6 - 952 y_a6_proc_2 >= -2578
 c203: u_a2 - u_a6 - 688 y_a6_proc_3 >= -2578
 c204: u_a2 - u_a6 - 710 y_a6_proc_0 >= 0
 c205: u_a2 - u_a6 - 1026 y_a6_proc_1 >= -2578
 c206: u_a7 - u_a2 - 861 y_a2_proc_2 >= -2592
 c207: u_a7 - u_a2 - 1289 y_a2_proc_3 >= -2592
 c208: u_a7 - u_a2 - 1100 y_a2_proc_1 >= -1303
 c209: u_a2 - u_a7 - 738 y_a7_proc_2 >= -2565
 c210: u_a2 - u_a7 - 790 y_a7_proc_3 >= -2565
 c211: u_a2 - u_a7 - 594 y_a7_proc_1 >= -1276
 c212: u_a8 - u_a2 - 861 y_a2_proc_2 >= -2565
 c213: u_a8 - u_a2 - 1289 y_a2_proc_3 >= -2565
 c214: u_a8 - u_a2 - 683 y_a2_proc_0 >= -1276
 c215: u_a8 - u_a2 - 1100 y_a2_proc_1 >= -1276
 c216: u_a2 - u_a8 - 875 y_a8_proc_2 >= -2592
 c217: u_a2 - u_a8 - 1108 y_a8_proc_3 >= -2592
 c218: u_a2 - u_a8 - 852 y_a8_proc_0 >= -1303
 c219: u_a2 - u_a8 - 753 y_a8_proc_1 >= -1303
 c220: u_a9 - u_a2 - 861 y_a2_proc_2 >= -2579
 c221: u_a9 - u_a2 - 1289 y_a2_proc_3 >= -2579
 c222: u_a9 - u_a2 - 683 y_a2_proc_0 >= -1
 c223: u_a9 - u_a2 - 1100 y_a2_proc_1 >= -2579
 c224: u_a2 - u_a9 - 807 y_a9_proc_2 >= -2578
 c225: u_a2 - u_a9 - 1032 y_a9_proc_3 >= -2578
 c226: u_a2 - u_a9 - 757 y_a9_proc_0 >= 0
 c227: u_a2 - u_a9 - 1046 y_a9_proc_1 >= -2578
 c228: u_a4 - u_a3 - 738 y_a3_proc_3 >= -1303
 c229: u_a4 - u_a3 - 793 y_a3_proc_1 >= -2592
 c230: u_a3 - u_a4 - 1227 y_a4_proc_3 >= -1276
 c231: u_a3 - u_a4 - 1042 y_a4_proc_1 >= -2565
 c232: u_a5 - u_a3 - 793 y_a3_proc_1 >= -2592
 c233: u_a3 - u_a5 - 873 y_a5_proc_1 >= -2565
 c234: u_a6 - u_a3 - 738 y_a3_proc_3 >= -1303
 c235: u_a6 - u_a3 - 793 y_a3_proc_1 >= -2592
 c236: u_a3 - u_a6 - 688 y_a6_proc_3 >= -1276
 c237: u_a3 - u_a6 - 1026 y_a6_proc_1 >= -2565
 c238: u_a7 - u_a3 - 738 y_a3_proc_3 >= -1303
 c239: u_a7 - u_a3 - 793 y_a3_proc_1 >= -1303
 c240: u_a3 - u_a7 - 790 y_a7_proc_3 >= -1276
 c241: u_a3 - u_a7 - 594 y_a7_proc_1 >= -1276
 c242: u_a8 - u_a3 - 738 y_a3_proc_3 >= -1303
 c243: u_a8 - u_a3 - 793 y_a3_proc_1 >= -1303
 c244: u_a3 - u_a8 - 1108 y_a8_proc_3 >= -1276
 c245: u_a3 - u_a8 - 753 y_a8_proc_1 >= -1276
 c246: u_a9 - u_a3 - 738 y_a3_proc_3 >= -1303
 c247: u_a9 - u_a3 - 793 y_a3_proc_1 >= -2592
 c248: u_a3 - u_a9 - 1032 y_a9_proc_3 >= -1276
 c249: u_a3 - u_a9 - 1046 y_a9_proc_1 >= -2565
 c250: u_a5 - u_a4 - 809 y_a4_proc_2 >= 0
 c251: u_a5 - u_a4 - 948 y_a4_proc_0 >= -2578
 c252: u_a5 - u_a4 - 1042 y_a4_proc_1 >= -2578
 c253: u_a4 - u_a5 - 865 y_a5_proc_2 >= -1
 c254: u_a4 - u_a5 - 1152 y_a5_proc_0 >= -2579
 c255: u_a4 - u_a5 - 873 y_a5_proc_1 >= -2579
 c256: u_a6 - u_a4 - 809 y_a4_proc_2 >= -1303
 c257: u_a6 - u_a4 - 1227 y_a4_proc_3 >= -2592
 c258: u_a6 - u_a4 - 948 y_a4_proc_0 >= -1303
 c259: u_a6 - u_a4 - 1042 y_a4_proc_1 >= -2592
 c260: u_a4 - u_a6 - 952 y_a6_proc_2 >= -1276
 c261: u_a4 - u_a6 - 688 y_a6_proc_3 >= -2565
 c262: u_a4 - u_a6 - 710 y_a6_proc_0 >= -1276
 c263: u_a4 - u_a6 - 1026 y_a6_proc_1 >= -2565
 c264: u_a7 - u_a4 - 809 y_a4_proc_2 >= -1303
 c265: u_a7 - u_a4 - 1227 y_a4_proc_3 >= -2592
 c266: u_a7 - u_a4 - 1042 y_a4_proc_1 >= -1303
 c267: u_a4 - u_a7 - 738 y_a7_proc_2 >= -1276
 c268: u_a4 - u_a7 - 790 y_a7_proc_3 >= -2565
 c269: u_a4 - u_a7 - 594 y_a7_proc_1 >= -1276
 c270: u_a8 - u_a4 - 809 y_a4_proc_2 >= -1303
 c271: u_a8 - u_a4 - 1227 y_a4_proc_3 >= -2592
 c272: u_a8 - u_a4 - 948 y_a4_proc_0 >= -2592
 c273: u_a8 - u_a4 - 1042 y_a4_proc_1 >= -1303
 c274: u_a4 - u_a8 - 875 y_a8_proc_2 >= -1276
 c275: u_a4 - u_a8 - 1108 y_a8_proc_3 >= -2565
 c276: u_a4 - u_a8 - 852 y_a8_proc_0 >= -2565
 c277: u_a4 - u_a8 - 753 y_a8_proc_1 >= -1276
 c278: u_a9 - u_a4 - 809 y_a4_proc_2 >= -1303
 c279: u_a9 - u_a4 - 1227 y_a4_proc_3 >= -2592
 c280: u_a9 - u_a4 - 948 y_a4_proc_0 >= -1303
 c281: u_a9 - u_a4 - 1042 y_a4_proc_1 >= -2592
 c282: u_a4 - u_a9 - 807 y_a9_proc_2 >= -1276
 c283: u_a4 - u_a9 - 1032 y_a9_proc_3 >= -2565
 c284: u_a4 - u_a9 - 757 y_a9_proc_0 >= -1276
 c285: u_a4 - u_a9 - 1046 y_a9_proc_1 >= -2565
 c286: u_a6 - u_a5 - 865 y_a5_proc_2 >= -1303
 c287: u_a6 - u_a5 - 1152 y_a5_proc_0 >= -1303
 c288: u_a6 - u_a5 - 873 y_a5_proc_1 >= -2592
 c289: u_a5 - u_a6 - 952 y_a6_proc_2 >= -1276
 c290: u_a5 - u_a6 - 710 y_a6_proc_0 >= -1276
 c291: u_a5 - u_a6 - 1026 y_a6_proc_1 >= -2565
 c292: u_a7 - u_a5 - 865 y_a5_proc_2 >= -1303
 c293: u_a7 - u_a5 - 873 y_a5_proc_1 >= -1303
 c294: u_a5 - u_a7 - 738 y_a7_proc_2 >= -1276
 c295: u_a5 - u_a7 - 594 y_a7_proc_1 >= -1276
 c296: u_a8 - u_a5 - 865 y_a5_proc_2 >= -1276
 c297: u_a8 - u_a5 - 1152 y_a5_proc_0 >= -2565
 c298: u_a8 - u_a5 - 873 y_a5_proc_1 >= -1276
 c299: u_a5 - u_a8 - 875 y_a8_proc_2 >= -1303
 c300: u_a5 - u_a8 - 852 y_a8_proc_0 >= -2592
 c301: u_a5 - u_a8 - 753 y_a8_proc_1 >= -1303
 c302: u_a9 - u_a5 - 865 y_a5_proc_2 >= -1303
 c303: u_a9 - u_a5 - 1152 y_a5_proc_0 >= -1303
 c304: u_a9 - u_a5 - 873 y_a5_proc_1 >= -2592
 c305: u_a5 - u_a9 - 807 y_a9_proc_2 >= -1276
 c306: u_a5 - u_a9 - 757 y_a9_proc_0 >= -1276
 c307: u_a5 - u_a9 - 1046 y_a9_proc_1 >= -2565
 c308: u_a7 - u_a6 - 952 y_a6_proc_2 >= -2592
 c309: u_a7 - u_a6 - 688 y_a6_proc_3 >= -2592
 c310: u_a7 - u_a6 - 1026 y_a6_proc_1 >= -1303
 c311: u_a6 - u_a7 - 738 y_a7_proc_2 >= -2565
 c312: u_a6 - u_a7 - 790 y_a7_proc_3 >= -2565
 c313: u_a6 - u_a7 - 594 y_a7_proc_1 >= -1276
 c314: u_a8 - u_a6 - 952 y_a6_proc_2 >= -2592
 c315: u_a8 - u_a6 - 688 y_a6_proc_3 >= -2592
 c316: u_a8 - u_a6 - 710 y_a6_proc_0 >= -1303
 c317: u_a8 - u_a6 - 1026 y_a6_proc_1 >= -1303
 c318: u_a6 - u_a8 - 875 y_a8_proc_2 >= -2565
 c319: u_a6 - u_a8 - 1108 y_a8_proc_3 >= -2565
 c320: u_a6 - u_a8 - 852 y_a8_proc_0 >= -1276
 c321: u_a6 - u_a8 - 753 y_a8_proc_1 >= -1276
 c322: u_a9 - u_a6 - 952 y_a6_proc_2 >= -2579
 c323: u_a9 - u_a6 - 688 y_a6_proc_3 >= -2579
 c324: u_a9 - u_a6 - 710 y_a6_proc_0 >= -1
 c325: u_a9 - u_a6 - 1026 y_a6_proc_1 >= -2579
 c326: u_a6 - u_a9 - 807 y_a9_proc_2 >= -2578
 c327: u_a6 - u_a9 - 1032 y_a9_proc_3 >= -2578
 c328: u_a6 - u_a9 - 757 y_a9_proc_0 >= 0
 c329: u_a6 - u_a9 - 1046 y_a9_proc_1 >= -2578
 c330: u_a8 - u_a7 - 738 y_a7_proc_2 >= -2577
 c331: u_a8 - u_a7 - 790 y_a7_proc_3 >= -2577
 c332: u_a8 - u_a7 - 594 y_a7_proc_1 >= 1
 c333: u_a7 - u_a8 - 875 y_a8_proc_2 >= -2580
 c334: u_a7 - u_a8 - 1108 y_a8_proc_3 >= -2580
 c335: u_a7 - u_a8 - 753 y_a8_proc_1 >= -2
 c336: u_a9 - u_a7 - 738 y_a7_proc_2 >= -2592
 c337: u_a9 - u_a7 - 790 y_a7_proc_3 >= -2592
 c338: u_a9 - u_a7 - 594 y_a7_proc_1 >= -1303
 c339: u_a7 - u_a9 - 807 y_a9_proc_2 >= -2565
 c340: u_a7 - u_a9 - 1032 y_a9_proc_3 >= -2565
 c341: u_a7 - u_a9 - 1046 y_a9_proc_1 >= -1276
 c342: u_a9 - u_a8 - 875 y_a8_proc_2 >= -2592
 c343: u_a9 - u_a8 - 1108 y_a8_proc_3 >= -2592
 c344: u_a9 - u_a8 - 852 y_a8_proc_0 >= -1303
 c345: u_a9 - u_a8 - 753 y_a8_proc_1 >= -1303
 c346: u_a8 - u_a9 - 807 y_a9_proc_2 >= -2565
 c347: u_a8 - u_a9 - 1032 y_a9_proc_3 >= -2565
 c348: u_a8 - u_a9 - 757 y_a9_proc_0 >= -1276
 c349: u_a8 - u_a9 - 1046 y_a9_proc_1 >= -1276

Bounds
End
