benchmark/results/graph__10-1000-0.10-04_3/graph__10-1000-0.10-04_3_QuintonOs_Benders_primal_sub.txt
solution for: Quinton Bounded Benders_primal_sub
objective: 0.000193949
status: OPTIMAL_SOLUTION(2)
u_a0=1.000
u_a1=0.089
u_a2=0.400
u_a3=0.857
u_a4=0.532
u_a5=0.689
u_a6=0.262
u_a8=1.115
u_a9=0.115
tau=0.000
y_a0_proc_3=0.000
y_a1_proc_2=0.000
y_a2_proc_0=0.000
y_a3_proc_3=0.000
y_a4_proc_2=0.000
y_a5_proc_2=0.000
y_a6_proc_0=0.000
y_a7_proc_1=0.000
y_a8_proc_1=0.000
y_a9_proc_0=0.000
